11111111111111111111111111111
10000000000000000000000000101
11111111111111111011111111101
10000010000000000000000000101
10111011111111111111111110101
10001010001010000000001010101
11101010101010111010101010101
10001010100000001010100000101
11111011111110111111111111101
10000010101000001000001010101
10111010101111101110101010101
10100010000000100010101000101
11111010111010101010101110101
10100010001010001000101000001
10101011101011111011101011101
10001000001000001000101000101
11111011101111111111111011101
10000010100010100010101000101
10111110101110101010101110101
10000010100000001000001000101
11111010111011111011101011101
10101010100000100010001000101
10101010101110111011111010101
10000010101000101010001010101
10101110101111101010101110101
10100010000000100000100000101
11111111111111111111111011101
10000000000000000000000000101
11111111111111111111111111111
